NAME: tsp30_21
COMMENT: 30-tsp problem (Padberg/Rinaldi)
TYPE: TSP
DIMENSION: 30
EDGE_WEIGHT_TYPE : EUC_2D
NODE_COORD_SECTION
1 16 9
2 21 35
3 4 0
4 13 19
5 13 32
6 6 1
7 5 37
8 31 18
9 19 17
10 0 8
11 25 25
12 12 29
13 33 32
14 38 8
15 17 35
16 16 31
17 37 22
18 13 37
19 15 8
20 11 28
21 8 35
22 12 16
23 25 19
24 14 11
25 39 31
26 14 36
27 21 12
28 0 31
29 6 25
30 8 32
